47 82 118 200 127 146 117 30 107 66 53 93 36 108 
74 171 168 196 190 27 161 20 3 132 134 103 80 49 72 52 
120 
97 177 144 5 4 106 70 26 131 152 160 37 173 40 187 34 133 101 143 94 115 95 176 
14 172 83 
41 113 15 
158 85 69 46 180 31 75 199 137 149 
141 194 145 130 59 142 165 184 195 189 
135 183 112 64 174 38 8 18 13 84 150 29 178 24 39 19 148 71 156 9 197 138 62 122 162 
153 67 76 151 77 25 139 86 163 51 185 56 89 124 193 44 43 114 60 68 
42 10 182 126 2 65 121 12 73 32 140 17 100 92 175 22 159 109 166 16 119 98 
192 111 128 48 170 
90 188 167 79 87 157 179 28 154 
116 54 129 6 7 
35 57 1 123 104 61 
198 155 33 164 105 23 136 91 
110 63 181 
186 99 78 21 102 125 45 55 169 81 96 88 147 58 50 191 11 

